280206
71,18,13,54,82,42,51,57,60,75,56,81,47,7,17,83,55,63,65,37,64,29,10,73,1,58,31,19,39,21,46,80,14,62,70,26,66,67,76,9,12,27,3,43,79,49,34,32,77,40,5,36,45,48,24,59,2,74,22,50,52,53,4,16,41,6,25,15,61,69,78,72,30,38,8,35,23,44,68,11,33,28,20